100 100
47 76 1
71 71 1
1 67 1
59 52 1
1 49 1
17 13 1
27 33 1
88 32 1
88 65 1
51 20 1
30 21 1
16 22 1
30 13 1
28 16 1
99 86 1
65 12 1
82 17 1
39 55 1
57 17 1
92 23 1
34 30 1
4 27 1
58 36 1
84 11 1
6 43 1
79 54 1
91 98 1
65 65 1
56 78 1
54 91 1
80 93 1
89 8 1
72 89 1
50 27 1
78 44 1
46 94 1
76 67 1
23 85 1
76 4 1
58 12 1
24 33 1
62 20 1
96 64 1
80 86 1
4 42 1
90 21 1
92 45 1
2 70 1
39 84 1
61 10 1
55 3 1
44 53 1
85 81 1
64 42 1
6 27 1
64 57 1
29 88 1
23 8 1
100 40 1
50 39 1
95 94 1
91 28 1
27 96 1
24 86 1
39 22 1
59 58 1
9 84 1
42 22 1
48 27 1
49 88 1
1 28 1
92 1 1
45 98 1
15 39 1
92 81 1
97 13 1
86 57 1
48 67 1
5 34 1
13 80 1
60 59 1
69 61 1
95 9 1
27 57 1
88 94 1
33 44 1
51 60 1
63 33 1
27 84 1
30 70 1
95 78 1
77 31 1
65 85 1
82 28 1
82 83 1
56 6 1
24 85 1
44 42 1
2 33 1
23 47 1
100 100 
100 100 
100 100 
100 100 
100 100 
100 100 
100 100 
100 100 
100 100 
100 100 
100 100 
100 100 
100 100 
100 100 
100 100 
100 100 
100 100 
100 100 
100 100 
100 100 
100 100 
100 100 
100 100 
100 100 
100 100 
100 100 
100 100 
100 100 
100 100 
100 100 
100 100 
100 100 
100 100 
100 100 
100 100 
100 100 
100 100 
100 100 
100 100 
100 100 
100 100 
100 100 
100 100 
100 100 
100 100 
100 100 
100 100 
100 100 
100 100 
100 100 
100 100 
100 100 
100 100 
100 100 
100 100 
100 100 
100 100 
100 100 
100 100 
100 100 
100 100 
100 100 
100 100 
100 100 
100 100 
100 100 
100 100 
100 100 
100 100 
100 100 
100 100 
100 100 
100 100 
100 100 
100 100 
100 100 
100 100 
100 100 
100 100 
100 100 
100 100 
100 100 
100 100 
100 100 
100 100 
100 100 
100 100 
100 100 
100 100 
100 100 
100 100 
100 100 
100 100 
100 100 
100 100 
100 100 
100 100 
100 100 
100 100 
100 100 
